p cnf 300 1290 -397 435 -553 0 -359 392 -448 0 359 432 471 0 -305 424 -518 0 -339 341 -529 0 -317 447 452 0 312 -333 -429 0 303 -311 -404 0 -281 -293 495 0 282 -462 -510 0 -368 -407 457 0 374 382 423 0 -311 -458 549 0 412 436 -521 0 297 459 -556 0 -315 -382 453 0 -339 505 554 0 -308 -314 424 0 -313 425 451 0 367 398 401 0 -359 -444 472 0 335 490 525 0 -413 453 461 0 317 -406 -518 0 328 457 -464 0 307 351 -388 0 -402 470 506 0 -333 540 552 0 -311 -471 506 0 -335 -520 555 0 282 -409 -457 0 320 355 551 0 403 -412 510 0 -427 476 -485 0 293 498 -559 0 309 -343 -476 0 367 -386 529 0 394 -438 480 0 -370 531 0 -290 -554 557 0 409 -471 492 0 312 400 431 0 -351 397 -487 0 330 423 -517 0 338 344 537 0 -296 546 547 0 -293 541 548 0 -310 377 -551 0 287 -378 458 0 293 -393 526 0 -332 -406 530 0 -351 414 540 0 381 -400 532 0 355 -377 408 0 298 -407 450 0 389 -431 -548 0 310 -522 -555 0 -348 450 -522 0 400 -410 -490 0 -383 423 -439 0 -298 428 506 0 338 367 -544 0 -290 -400 403 0 -324 459 497 0 286 -444 524 0 366 416 501 0 -316 403 498 0 385 477 532 0 434 -471 -533 0 327 364 -513 0 360 -422 -445 0 -297 326 -477 0 -327 480 511 0 -419 507 549 0 292 437 -448 0 -302 330 375 0 -380 401 531 0 -312 435 466 0 -412 536 0 322 323 336 0 382 -484 0 -281 -433 490 0 -306 312 313 0 305 395 555 0 -324 375 -502 0 287 -301 405 0 299 354 -495 0 -416 475 529 0 368 373 -430 0 -307 -333 373 0 290 -442 479 0 -297 -317 423 0 475 512 -547 0 404 443 544 0 -444 515 0 -308 -335 508 0 -361 -391 483 0 380 -420 546 0 -318 -355 388 0 309 450 -555 0 357 384 458 0 -294 -336 459 0 -372 -482 507 0 311 -342 488 0 -380 384 -473 0 452 491 500 0 -290 361 -443 0 321 437 -495 0 386 414 -455 0 -520 547 556 0 -383 413 -466 0 -290 339 -438 0 335 -488 -525 0 400 -432 471 0 322 449 513 0 426 -471 -499 0 -334 464 -474 0 -306 -360 514 0 -388 -400 455 0 -366 432 549 0 410 -413 436 0 478 488 -490 0 -438 -464 510 0 467 490 -531 0 -310 368 370 0 -349 404 -526 0 -303 377 -398 0 412 -493 -545 0 283 -413 -454 0 -351 432 -514 0 449 -458 516 0 -396 -480 521 0 389 -517 550 0 -351 -391 446 0 -303 -355 470 0 443 -490 493 0 296 -413 -435 0 305 -520 522 0 -300 301 -455 0 -287 -332 -360 0 414 -470 552 0 429 482 -547 0 293 305 416 0 -329 391 -495 0 346 391 467 0 -290 -424 465 0 332 401 -535 0 -313 351 551 0 312 -357 430 0 -313 423 554 0 -363 -484 503 0 -333 427 -519 0 386 -481 -548 0 334 348 377 0 -293 380 -449 0 -354 -413 423 0 -329 360 -515 0 358 -463 522 0 301 364 -485 0 -378 387 415 0 288 325 392 0 -288 380 -533 0 -339 455 -536 0 375 -446 -464 0 -318 370 -426 0 -303 308 427 0 -374 -484 518 0 389 411 -519 0 -312 -325 401 0 283 -486 -548 0 290 -350 -551 0 -491 542 -545 0 284 -485 540 0 299 -371 439 0 382 497 -555 0 419 429 -556 0 322 -510 511 0 307 344 -489 0 331 -365 -517 0 -321 367 413 0 343 445 556 0 -349 481 492 0 394 415 555 0 469 -510 522 0 -349 492 -557 0 -346 404 532 0 465 519 533 0 286 414 -419 0 488 -512 -524 0 315 447 540 0 314 365 -511 0 -291 352 -380 0 304 -310 373 0 -418 420 -553 0 281 437 -466 0 -436 448 -520 0 284 285 498 0 -323 -358 430 0 319 401 -402 0 350 -362 -389 0 291 -403 -477 0 -341 -378 494 0 294 -430 -536 0 349 -359 505 0 -318 -339 464 0 348 379 -550 0 504 519 520 0 378 -471 -486 0 341 368 -475 0 -296 336 -482 0 -295 -307 525 0 -367 -403 513 0 329 420 -554 0 289 -341 371 0 336 399 411 0 331 501 -539 0 342 -358 -435 0 468 -498 558 0 -348 -495 519 0 -302 410 -466 0 357 -365 -463 0 286 -461 484 0 435 490 547 0 316 328 358 0 -346 449 460 0 -364 -411 486 0 437 452 -464 0 347 426 540 0 -483 -495 531 0 434 -459 494 0 395 409 -456 0 -474 492 -517 0 -303 363 477 0 323 418 -469 0 337 345 -502 0 374 -522 523 0 -412 494 -539 0 -283 294 337 0 311 346 -461 0 -281 -495 539 0 -287 301 525 0 -365 439 -488 0 384 426 439 0 -292 -328 -373 0 327 -377 -388 0 415 439 476 0 -306 461 -462 0 292 391 -544 0 -304 358 409 0 492 -497 505 0 403 467 -492 0 -437 -441 553 0 313 448 504 0 283 327 390 0 371 -376 -401 0 -397 475 517 0 -337 -367 531 0 393 -396 -414 0 -284 342 -430 0 320 -332 -537 0 -293 463 472 0 304 383 -534 0 -294 -365 395 0 -335 -514 523 0 380 -386 -441 0 -311 -496 509 0 286 329 331 0 -325 479 507 0 399 518 -557 0 -341 -358 444 0 -281 358 542 0 -452 -508 -545 0 435 458 -462 0 336 -409 525 0 300 -322 435 0 478 538 0 356 -379 482 0 304 -370 498 0 324 -326 -399 0 -400 -435 505 0 298 -362 -533 0 -294 330 510 0 -291 -439 550 0 310 382 -400 0 -349 539 547 0 385 386 -510 0 -493 518 535 0 321 -326 371 0 450 -549 556 0 394 449 -473 0 383 -500 -547 0 -422 445 494 0 285 -308 -549 0 -318 451 -493 0 -379 -441 475 0 -310 352 -452 0 420 -452 514 0 495 517 -528 0 403 446 -522 0 315 -512 -553 0 357 -395 543 0 284 -379 -492 0 322 485 -512 0 400 -407 -497 0 -287 509 -520 0 -446 479 -559 0 352 -434 -502 0 491 -523 524 0 -302 424 432 0 -394 418 465 0 293 297 -312 0 -309 531 -553 0 325 -464 -523 0 -297 321 451 0 -328 390 410 0 412 -443 -523 0 -323 -385 451 0 340 -385 -549 0 -345 -397 429 0 372 489 -537 0 -342 355 -497 0 -319 385 398 0 303 -332 -387 0 -300 380 392 0 -355 402 411 0 342 457 -552 0 324 -436 -475 0 495 501 533 0 300 -453 0 -356 -452 465 0 445 -513 539 0 352 -426 -478 0 -347 -481 555 0 -315 366 -461 0 281 -327 0 -309 402 515 0 342 344 453 0 417 -434 526 0 449 -454 549 0 -305 365 559 0 379 -496 542 0 285 -377 469 0 359 -387 -504 0 283 291 293 0 370 444 -461 0 330 416 525 0 -323 -392 482 0 331 410 556 0 421 447 526 0 398 427 534 0 -315 347 -442 0 -352 397 -454 0 328 -396 -443 0 436 -524 -528 0 322 369 -559 0 305 -378 -496 0 -356 377 -530 0 297 402 443 0 344 -436 535 0 342 -369 -443 0 -412 445 503 0 -353 431 -496 0 287 521 -554 0 325 -367 400 0 -301 -375 515 0 -373 374 -448 0 364 -378 423 0 305 -417 475 0 -365 -425 464 0 471 488 -542 0 -398 415 522 0 -321 -328 458 0 -324 385 -471 0 -299 -384 526 0 -348 368 511 0 314 -477 499 0 404 428 -438 0 364 -404 533 0 316 -390 -402 0 337 400 447 0 -281 415 485 0 416 511 -528 0 -294 -350 420 0 -433 -499 511 0 -429 -509 546 0 341 -435 -497 0 401 -419 -531 0 316 -470 -558 0 325 -395 505 0 312 -349 -379 0 336 -521 -557 0 -466 -502 550 0 -281 392 435 0 -316 -447 517 0 300 354 -415 0 -363 -393 513 0 286 354 533 0 334 344 -536 0 -402 428 553 0 -307 367 483 0 -370 402 -498 0 -381 -385 393 0 376 406 -486 0 342 439 481 0 289 -453 -488 0 -296 309 -415 0 308 -314 531 0 407 408 -554 0 463 519 541 0 -364 443 0 -390 -392 530 0 301 -484 -539 0 431 441 -544 0 -383 476 478 0 379 447 476 0 347 384 495 0 445 -493 524 0 290 317 515 0 314 -445 528 0 285 328 -444 0 365 419 -470 0 291 -384 -462 0 371 382 416 0 -355 363 -382 0 -342 353 -414 0 -289 -397 544 0 -364 384 -417 0 -434 -515 519 0 327 341 461 0 333 -388 -429 0 -405 416 453 0 414 -483 -492 0 320 462 505 0 -364 437 518 0 348 -353 430 0 345 -352 -508 0 375 423 -463 0 307 -503 529 0 292 -404 -518 0 -361 363 -423 0 -298 307 -372 0 -399 449 532 0 351 468 473 0 346 414 -535 0 305 -434 482 0 -306 367 421 0 -288 -362 463 0 -290 450 470 0 406 421 464 0 352 -373 437 0 -330 498 513 0 413 463 -526 0 343 -416 488 0 296 -443 551 0 436 -446 472 0 291 538 -539 0 396 -443 520 0 -383 538 553 0 403 -471 531 0 -293 420 516 0 299 408 489 0 -330 381 -516 0 -282 -385 396 0 342 431 441 0 -351 512 536 0 -334 422 -500 0 306 455 463 0 295 339 -485 0 -429 -477 536 0 328 -459 534 0 338 -424 -495 0 315 400 521 0 329 370 -470 0 289 -346 -485 0 428 -496 -555 0 329 365 488 0 297 -311 513 0 -371 -378 545 0 292 -461 -462 0 376 -415 -449 0 468 472 -480 0 -433 444 475 0 -428 528 -545 0 -298 -327 388 0 -396 -433 514 0 413 -531 541 0 302 331 -338 0 -420 -548 -557 0 -281 394 -423 0 325 454 546 0 -319 398 473 0 329 403 -413 0 313 -390 -418 0 -328 -427 475 0 -308 -473 519 0 363 -367 -399 0 326 351 -386 0 -386 418 -475 0 360 417 475 0 316 -445 548 0 -296 505 -543 0 -337 370 -539 0 326 409 -484 0 318 -364 -386 0 304 -339 -464 0 -301 319 408 0 283 487 492 0 406 428 -533 0 400 -415 444 0 328 450 491 0 -347 439 536 0 294 306 -372 0 -385 437 512 0 -398 -444 478 0 429 -433 0 368 -402 -544 0 303 -499 503 0 -299 306 485 0 -285 -289 430 0 -353 -500 534 0 -289 -400 472 0 -400 -435 449 0 311 -346 -467 0 379 -478 548 0 -353 379 520 0 -284 383 -407 0 373 411 -549 0 -369 454 479 0 406 423 469 0 292 400 401 0 -293 -359 552 0 -343 -436 514 0 -299 -341 347 0 -321 381 -390 0 -332 428 524 0 -313 523 -535 0 -450 453 498 0 296 -304 -317 0 355 -436 524 0 361 387 473 0 296 336 -414 0 -426 447 -500 0 366 -483 532 0 -453 496 -542 0 -339 362 519 0 -341 397 508 0 -330 428 -499 0 295 -367 -539 0 -348 -426 480 0 306 344 -511 0 314 365 -521 0 -471 -482 552 0 366 -458 465 0 -349 353 536 0 425 542 -548 0 289 456 -482 0 343 417 -419 0 286 355 365 0 -335 -362 413 0 430 -455 -537 0 -343 -484 554 0 291 489 529 0 345 -540 0 -338 -342 383 0 320 337 448 0 -341 513 -520 0 -459 -473 552 0 327 368 -409 0 338 -365 -388 0 -347 372 -496 0 374 -486 -521 0 -373 432 539 0 -352 -384 393 0 -344 450 -526 0 338 469 -473 0 348 -434 507 0 430 -519 -524 0 -436 466 468 0 366 421 515 0 335 471 496 0 286 -453 471 0 361 392 497 0 -289 -461 508 0 -316 325 -529 0 309 -554 557 0 428 -482 -556 0 -313 426 556 0 407 540 544 0 -343 388 419 0 360 452 461 0 -362 407 -550 0 350 -363 -385 0 -340 491 -554 0 311 -444 -529 0 -316 354 -491 0 411 -479 519 0 -427 449 -549 0 -310 384 519 0 353 429 547 0 390 520 -553 0 439 504 -550 0 288 -407 -501 0 376 434 474 0 -367 515 517 0 333 -391 -490 0 283 409 -499 0 473 521 522 0 -351 -374 -555 0 295 -491 502 0 441 453 -559 0 315 408 479 0 465 489 510 0 -353 -502 528 0 -425 -430 548 0 308 -385 514 0 292 -302 -466 0 312 -314 391 0 464 -465 500 0 362 -425 -555 0 297 -442 475 0 -299 324 373 0 324 -355 -411 0 330 -345 -485 0 -408 -510 553 0 383 454 -523 0 -288 331 -410 0 -347 -358 493 0 392 476 -477 0 346 359 447 0 364 -374 406 0 386 446 -482 0 -304 -310 388 0 -318 339 341 0 294 315 -452 0 281 -365 -410 0 363 537 -541 0 -289 -410 428 0 281 351 404 0 296 433 -457 0 -291 -387 414 0 -444 450 512 0 -384 446 -465 0 -297 -380 466 0 -305 370 -372 0 -378 484 -556 0 -399 457 -525 0 -398 541 554 0 331 -335 -341 0 339 461 -556 0 -336 451 470 0 -300 -439 463 0 408 412 479 0 296 -313 -445 0 406 -479 -508 0 -388 -408 476 0 316 448 -536 0 -296 431 -497 0 297 426 547 0 305 527 559 0 361 399 487 0 302 -345 -411 0 -375 451 -517 0 313 346 495 0 344 477 -539 0 -311 342 -378 0 -315 334 -554 0 -371 514 -542 0 -400 423 456 0 356 -411 -487 0 284 -345 559 0 444 548 -550 0 -512 528 551 0 -486 -493 528 0 315 325 382 0 429 -490 518 0 306 385 543 0 370 -443 -446 0 -472 509 541 0 -322 365 -382 0 341 -398 520 0 -427 443 -527 0 507 -554 -557 0 -294 440 -481 0 -318 351 425 0 371 417 -424 0 -284 -469 476 0 -339 -467 549 0 401 -511 0 294 -355 361 0 -335 414 531 0 311 399 469 0 -313 410 -456 0 296 -302 435 0 371 469 -485 0 -384 -553 554 0 -436 537 543 0 383 409 497 0 332 -429 -543 0 -294 -432 512 0 -327 376 -538 0 325 386 -452 0 369 532 -543 0 -287 422 -471 0 325 -373 492 0 428 472 -502 0 287 503 -549 0 -370 475 -546 0 375 401 496 0 -282 297 -344 0 -285 292 -403 0 -316 353 425 0 337 368 -427 0 373 488 0 454 489 -517 0 -328 378 383 0 -522 523 559 0 351 410 -454 0 -314 -345 378 0 342 -429 -457 0 -387 412 -531 0 334 336 -390 0 338 495 -551 0 337 -370 -407 0 345 393 455 0 320 465 490 0 314 399 -498 0 -322 409 -469 0 -359 -361 556 0 -341 478 557 0 289 -350 -522 0 -379 434 440 0 -371 -420 505 0 311 -390 -493 0 -344 391 479 0 -314 -441 465 0 358 423 519 0 308 -373 -438 0 308 491 520 0 358 -433 476 0 380 469 -510 0 285 -379 -426 0 -291 317 -359 0 -427 534 548 0 365 528 530 0 -372 500 527 0 392 496 505 0 -313 -330 388 0 -318 433 -493 0 363 419 -497 0 -316 430 551 0 -300 -341 394 0 -299 -352 404 0 -396 443 -493 0 293 426 466 0 311 416 527 0 308 349 -544 0 289 -319 388 0 -330 532 -545 0 506 -510 527 0 321 -439 462 0 -293 444 557 0 -319 349 403 0 -313 -496 503 0 -291 409 -412 0 317 -355 545 0 283 319 529 0 -473 507 526 0 -288 -297 524 0 383 -449 -548 0 319 377 -516 0 345 448 555 0 -390 -398 524 0 -348 520 551 0 -368 434 526 0 -320 451 -473 0 315 360 431 0 -321 -440 516 0 441 -473 513 0 352 396 462 0 301 448 512 0 409 -450 -523 0 -326 344 -524 0 429 -522 -534 0 -313 427 522 0 400 477 549 0 396 -415 456 0 358 395 -475 0 -348 485 501 0 344 -541 551 0 322 427 -556 0 364 480 -553 0 -313 356 504 0 -307 -347 -425 0 -327 -509 554 0 337 393 481 0 286 -434 -454 0 376 -414 -451 0 -338 -414 421 0 298 317 -521 0 414 433 -467 0 425 457 501 0 321 -348 408 0 319 350 -361 0 474 -533 540 0 399 487 548 0 430 -453 -514 0 281 -434 -537 0 359 419 -493 0 -282 514 -559 0 335 -440 -559 0 307 401 413 0 -381 393 -558 0 320 437 539 0 312 386 488 0 -319 337 -405 0 329 -471 -530 0 -383 384 -417 0 379 -476 483 0 -312 -384 423 0 392 -445 527 0 -281 -361 445 0 310 326 515 0 289 359 542 0 307 371 547 0 -355 -440 470 0 303 -400 559 0 -286 -481 520 0 -306 322 -548 0 -370 -474 541 0 -393 -502 554 0 400 -468 497 0 319 359 -474 0 -442 510 558 0 -358 419 -427 0 -353 425 520 0 -284 436 -483 0 533 -548 -553 0 -341 -405 425 0 350 -482 -517 0 -293 377 489 0 283 -472 -550 0 461 503 530 0 431 480 -481 0 428 -512 -531 0 356 393 505 0 366 493 -496 0 358 469 -536 0 -314 357 -547 0 403 -522 524 0 299 -311 495 0 -374 516 524 0 -291 306 -365 0 -350 501 -557 0 -383 -406 524 0 287 -308 -557 0 -312 417 -517 0 -344 393 -488 0 312 -430 -544 0 -288 464 -465 0 297 475 479 0 -347 424 502 0 -320 325 420 0 338 431 547 0 -496 -519 -527 0 367 368 419 0 402 467 -485 0 328 339 553 0 287 319 329 0 328 457 -522 0 387 518 523 0 -293 316 -546 0 -286 -420 451 0 -318 360 446 0 412 -449 -528 0 -383 520 -533 0 309 -445 546 0 404 421 -499 0 -302 -438 531 0 285 481 -548 0 -293 322 -533 0 290 491 519 0 -378 410 479 0 441 468 -544 0 -297 -455 474 0 -302 344 -528 0 324 -422 543 0 -405 451 -478 0 -390 -446 480 0 284 -428 -536 0 284 296 377 0 287 -325 -508 0 328 377 -441 0 372 -400 420 0 -317 -492 512 0 318 -482 -539 0 426 474 532 0 -430 523 555 0 403 -408 -448 0 323 330 348 0 -347 490 544 0 368 445 459 0 333 400 -452 0 -367 -448 491 0 -337 496 502 0 298 -318 -359 0 -320 351 -555 0 -310 465 531 0 -307 -391 520 0 -380 467 541 0 -284 352 508 0 342 442 537 0 -309 513 -529 0 -345 403 458 0 290 -438 512 0 304 389 -551 0 -411 -470 543 0 329 -336 -338 0 287 369 -466 0 388 -440 506 0 363 454 531 0 -470 473 -519 0 -324 402 -413 0 314 -484 -528 0 350 -421 436 0 -346 383 -425 0 491 -530 532 0 379 404 -469 0 282 401 507 0 -384 459 -481 0 366 -442 492 0 340 -373 -404 0 393 503 527 0 324 466 472 0 -373 376 543 0 324 394 -538 0 -448 -474 490 0 -298 441 476 0 -308 321 338 0 339 -417 462 0 -296 474 -476 0 432 444 539 0 -344 427 559 0 338 350 -398 0 -298 458 -532 0 487 -494 -515 0 348 -378 527 0 -285 289 -552 0 333 519 -540 0 -350 -499 -548 0 395 403 -447 0 291 302 -343 0 -305 308 -379 0 431 491 550 0 376 460 471 0 383 -432 442 0 -293 351 446 0 355 463 -516 0 -302 -381 508 0 289 -442 -495 0 351 378 -420 0 294 301 466 0 -361 -486 501 0 367 -450 -467 0 291 298 -451 0 359 -554 558 0 356 457 505 0 -324 447 -487 0 308 -336 521 0 -364 -377 506 0 -358 462 -477 0 352 373 384 0 397 419 555 0 375 547 -550 0 288 -308 540 0 458 -509 -525 0 -301 -496 550 0 355 -359 -432 0 -372 383 -500 0 -297 -494 510 0 -294 331 -510 0 -310 341 -538 0 356 -490 516 0 -375 -409 -533 0 -362 402 -530 0 330 -345 546 0 337 -405 -469 0 293 441 466 0 466 -492 -533 0 299 -383 410 0 -392 -427 493 0 366 -374 384 0 382 -485 -525 0 379 -401 527 0 -508 521 529 0 345 380 422 0 -383 -421 542 0 466 -501 542 0 367 419 -514 0 304 -316 390 0 -297 -300 452 0 379 -452 -492 0 320 -336 -454 0 -327 362 -502 0 285 -390 475 0 -281 494 505 0 -286 -454 511 0 306 -311 -484 0 386 429 457 0 290 -352 537 0 -306 -315 479 0 -383 452 -520 0 336 -502 -529 0 332 421 528 0 317 -518 522 0 345 439 -472 0 395 -444 533 0 300 385 -495 0 470 540 -542 0 -300 480 522 0 -374 532 544 0 -483 487 502 0 360 441 472 0 -328 -388 558 0 376 410 -413 0 339 349 -470 0 -380 488 548 0 356 425 550 0 285 368 454 0 -467 -475 517 0 425 469 -529 0 417 -423 -425 0 -297 321 453 0 390 -425 531 0 303 -428 541 0 357 489 -532 0 -332 -342 553 0 410 469 -474 0 -342 530 -536 0 -324 355 -513 0 -336 -382 400 0 291 -415 -454 0 304 476 -546 0 -343 389 547 0 -285 -336 540 0 -349 423 522 0 281 -377 -496 0 303 506 -514 0 354 -396 490 0 328 -479 -546 0 283 -316 460 0 344 -417 -524 0 301 -325 -505 0 373 379 473 0 303 487 508 0 382 454 -502 0 439 -494 -548 0 312 378 -404 0 -382 -415 535 0 353 424 -517 0 327 349 -446 0 -397 461 -536 0 -292 419 -537 0 340 -537 540 0 300 -324 461 0 -328 475 549 0 -387 -505 519 0 383 -399 -488 0 334 425 482 0 290 453 517 0 343 -399 460 0 342 -372 -448 0 387 409 532 0 -396 -426 491 0 -310 337 359 0 303 -316 -363 0 -284 439 -453 0 492 -501 -531 0 365 -453 -527 0 -341 399 -403 0 324 -381 -545 0 373 411 448 0 -376 470 515 0 336 -382 -537 0 366 379 538 0 -361 368 -423 0 322 331 372 0 -381 -450 508 0 -309 319 -357 0 -308 494 -521 0 -329 -395 510 0 -420 -429 523 0 -303 420 481 0 -333 405 424 0 310 -407 550 0 -297 -542 556 0 -355 -457 476 0 -315 325 -550 0 -441 448 451 0 -525 -527 531 0 418 -518 548 0 -334 483 -497 0 -315 430 -491 0 335 371 470 0 -337 390 521 0 379 468 -555 0 351 -390 434 0 340 490 523 0 -473 506 -518 0 375 -439 -489 0 334 379 -391 0 305 -384 -552 0 -329 413 -478 0 290 -455 484 0 397 -436 -547 0 -324 406 548 0 295 -414 -463 0 -399 -414 554 0 -484 -516 518 0 -399 444 497 0 -291 -466 520 0 328 359 430 0 -437 504 -556 0 284 -404 -558 0 -425 -445 464 0 477 -485 554 0 -411 470 -511 0 299 518 -548 0 420 426 -445 0 289 406 -475 0 -296 -314 348 0 440 -481 -544 0 -350 -366 448 0 326 -420 -534 0 330 392 -537 0 307 -376 -390 0 283 425 430 0 321 426 468 0 -296 314 461 0 -308 369 411 0 328 404 449 0 356 398 -555 0 -355 373 464 0 -424 -440 514 0 390 434 -463 0 437 449 -554 0 -521 -533 -559 0 287 -394 -425 0 -341 411 -548 0 357 394 551 0 -454 458 480 0 415 422 491 0 310 -312 360 0 322 429 -444 0 284 371 -532 0 331 -386 -493 0 -332 -420 421 0 -315 356 387 0 -302 425 475 0 -380 504 512 0 -394 523 -528 0 332 -344 -539 0 344 367 403 0 294 -469 540 0 310 340 -437 0 400 -404 -420 0 302 -434 -508 0 306 -407 -449 0 -302 -334 443 0 -306 -462 513 0 330 -416 -456 0 331 349 470 0 317 -351 -534 0 298 -349 452 0 -338 487 518 0 -335 358 458 0 -319 350 -485 0 286 -365 395 0 498 -540 557 0 287 325 328 0 -405 -437 -529 0 -329 391 506 0 303 -413 -443 0 -325 -425 548 0 594 637 -776 0 -578 639 701 0 576 -657 -754 0 599 614 633 0 609 -672 -693 0 -693 740 -752 0 -626 640 -772 0 598 670 773 0 584 641 -747 0 -562 563 791 0 635 646 736 0 -573 -696 700 0 608 728 -753 0 -650 667 -736 0 626 688 -713 0 -605 669 756 0 571 -703 750 0 -635 647 689 0 -598 -648 -677 0 -617 793 -795 0 -675 -697 -779 0 -561 587 613 0 630 -729 756 0 626 -705 -761 0 -618 644 705 0 -583 635 -659 0 -603 672 716 0 568 715 -718 0 595 694 -729 0 -645 -646 684 0 647 694 -757 0 727 737 -756 0 629 -642 650 0 -567 607 780 0 574 581 -661 0 586 -685 -746 0 -622 724 752 0 -605 625 717 0 606 650 -723 0 640 723 750 0 615 -675 -740 0 612 -703 780 0 610 -640 -655 0 591 -643 -691 0 -728 751 -789 0 -643 660 -777 0 -609 743 -769 0 706 -755 -798 0 -584 -721 748 0 641 -687 689 0 -568 -692 701 0 -631 642 -778 0 -570 603 770 0 -584 787 797 0 596 754 776 0 565 -587 -762 0 -596 626 753 0 -617 726 -787 0 -613 -615 725 0 562 -731 781 0 662 -717 -777 0 -596 654 -742 0 -564 -641 740 0 653 657 791 0 607 -693 773 0 676 678 730 0 677 -688 0 -580 -659 714 0 618 637 -760 0 606 -729 761 0 -598 609 -698 0 595 -722 -765 0 612 -683 787 0 688 -745 -758 0 644 721 -770 0 -641 717 786 0 -582 755 -769 0 -564 673 -780 0 590 787 788 0 -649 -714 796 0 -566 617 726 0 596 632 773 0 -602 685 752 0 664 771 -790 0 724 759 761 0 575 721 -729 0 -613 628 794 0 -562 -597 -625 0 690 -722 -765 0 -670 -692 783 0 -566 -577 724 0 712 739 -755 0 661 702 -732 0 604 -721 797 0 562 -634 706 0 -675 690 775 0 674 684 788 0 -566 -632 636 0 599 666 681 0 -626 -658 788 0 599 600 602 0 -691 718 745 0 709 -719 789 0 610 -774 0 622 -710 784 0 -602 637 -654 0 -607 -629 727 0
p cnf 300 1290 -397 435 -553 0 -359 392 -448 0 359 432 471 0 -305 424 -518 0 -339 341 -529 0 -317 447 452 0 312 -333 -429 0 303 -311 -404 0 -281 -293 495 0 282 -462 -510 0 -368 -407 457 0 374 382 423 0 -311 -458 549 0 412 436 -521 0 297 459 -556 0 -315 -382 453 0 -339 505 554 0 -308 -314 424 0 -313 425 451 0 367 398 401 0 -359 -444 472 0 335 490 525 0 -413 453 461 0 317 -406 -518 0 328 457 -464 0 307 351 -388 0 -402 470 506 0 -333 540 552 0 -311 -471 506 0 -335 -520 555 0 282 -409 -457 0 320 355 551 0 403 -412 510 0 -427 476 -485 0 293 498 -559 0 309 -343 -476 0 367 -386 529 0 394 -438 480 0 -370 531 0 -290 -554 557 0 409 -471 492 0 312 400 431 0 -351 397 -487 0 330 423 -517 0 338 344 537 0 -296 546 547 0 -293 541 548 0 -310 377 -551 0 287 -378 458 0 293 -393 526 0 -332 -406 530 0 -351 414 540 0 381 -400 532 0 355 -377 408 0 298 -407 450 0 389 -431 -548 0 310 -522 -555 0 -348 450 -522 0 400 -410 -490 0 -383 423 -439 0 -298 428 506 0 338 367 -544 0 -290 -400 403 0 -324 459 497 0 286 -444 524 0 366 416 501 0 -316 403 498 0 385 477 532 0 434 -471 -533 0 327 364 -513 0 360 -422 -445 0 -297 326 -477 0 -327 480 511 0 -419 507 549 0 292 437 -448 0 -302 330 375 0 -380 401 531 0 -312 435 466 0 -412 536 0 322 323 336 0 382 -484 0 -281 -433 490 0 -306 312 313 0 305 395 555 0 -324 375 -502 0 287 -301 405 0 299 354 -495 0 -416 475 529 0 368 373 -430 0 -307 -333 373 0 290 -442 479 0 -297 -317 423 0 475 512 -547 0 404 443 544 0 -444 515 0 -308 -335 508 0 -361 -391 483 0 380 -420 546 0 -318 -355 388 0 309 450 -555 0 357 384 458 0 -294 -336 459 0 -372 -482 507 0 311 -342 488 0 -380 384 -473 0 452 491 500 0 -290 361 -443 0 321 437 -495 0 386 414 -455 0 -520 547 556 0 -383 413 -466 0 -290 339 -438 0 335 -488 -525 0 400 -432 471 0 322 449 513 0 426 -471 -499 0 -334 464 -474 0 -306 -360 514 0 -388 -400 455 0 -366 432 549 0 410 -413 436 0 478 488 -490 0 -438 -464 510 0 467 490 -531 0 -310 368 370 0 -349 404 -526 0 -303 377 -398 0 412 -493 -545 0 283 -413 -454 0 -351 432 -514 0 449 -458 516 0 -396 -480 521 0 389 -517 550 0 -351 -391 446 0 -303 -355 470 0 443 -490 493 0 296 -413 -435 0 305 -520 522 0 -300 301 -455 0 -287 -332 -360 0 414 -470 552 0 429 482 -547 0 293 305 416 0 -329 391 -495 0 346 391 467 0 -290 -424 465 0 332 401 -535 0 -313 351 551 0 312 -357 430 0 -313 423 554 0 -363 -484 503 0 -333 427 -519 0 386 -481 -548 0 334 348 377 0 -293 380 -449 0 -354 -413 423 0 -329 360 -515 0 358 -463 522 0 301 364 -485 0 -378 387 415 0 288 325 392 0 -288 380 -533 0 -339 455 -536 0 375 -446 -464 0 -318 370 -426 0 -303 308 427 0 -374 -484 518 0 389 411 -519 0 -312 -325 401 0 283 -486 -548 0 290 -350 -551 0 -491 542 -545 0 284 -485 540 0 299 -371 439 0 382 497 -555 0 419 429 -556 0 322 -510 511 0 307 344 -489 0 331 -365 -517 0 -321 367 413 0 343 445 556 0 -349 481 492 0 394 415 555 0 469 -510 522 0 -349 492 -557 0 -346 404 532 0 465 519 533 0 286 414 -419 0 488 -512 -524 0 315 447 540 0 314 365 -511 0 -291 352 -380 0 304 -310 373 0 -418 420 -553 0 281 437 -466 0 -436 448 -520 0 284 285 498 0 -323 -358 430 0 319 401 -402 0 350 -362 -389 0 291 -403 -477 0 -341 -378 494 0 294 -430 -536 0 349 -359 505 0 -318 -339 464 0 348 379 -550 0 504 519 520 0 378 -471 -486 0 341 368 -475 0 -296 336 -482 0 -295 -307 525 0 -367 -403 513 0 329 420 -554 0 289 -341 371 0 336 399 411 0 331 501 -539 0 342 -358 -435 0 468 -498 558 0 -348 -495 519 0 -302 410 -466 0 357 -365 -463 0 286 -461 484 0 435 490 547 0 316 328 358 0 -346 449 460 0 -364 -411 486 0 437 452 -464 0 347 426 540 0 -483 -495 531 0 434 -459 494 0 395 409 -456 0 -474 492 -517 0 -303 363 477 0 323 418 -469 0 337 345 -502 0 374 -522 523 0 -412 494 -539 0 -283 294 337 0 311 346 -461 0 -281 -495 539 0 -287 301 525 0 -365 439 -488 0 384 426 439 0 -292 -328 -373 0 327 -377 -388 0 415 439 476 0 -306 461 -462 0 292 391 -544 0 -304 358 409 0 492 -497 505 0 403 467 -492 0 -437 -441 553 0 313 448 504 0 283 327 390 0 371 -376 -401 0 -397 475 517 0 -337 -367 531 0 393 -396 -414 0 -284 342 -430 0 320 -332 -537 0 -293 463 472 0 304 383 -534 0 -294 -365 395 0 -335 -514 523 0 380 -386 -441 0 -311 -496 509 0 286 329 331 0 -325 479 507 0 399 518 -557 0 -341 -358 444 0 -281 358 542 0 -452 -508 -545 0 435 458 -462 0 336 -409 525 0 300 -322 435 0 478 538 0 356 -379 482 0 304 -370 498 0 324 -326 -399 0 -400 -435 505 0 298 -362 -533 0 -294 330 510 0 -291 -439 550 0 310 382 -400 0 -349 539 547 0 385 386 -510 0 -493 518 535 0 321 -326 371 0 450 -549 556 0 394 449 -473 0 383 -500 -547 0 -422 445 494 0 285 -308 -549 0 -318 451 -493 0 -379 -441 475 0 -310 352 -452 0 420 -452 514 0 495 517 -528 0 403 446 -522 0 315 -512 -553 0 357 -395 543 0 284 -379 -492 0 322 485 -512 0 400 -407 -497 0 -287 509 -520 0 -446 479 -559 0 352 -434 -502 0 491 -523 524 0 -302 424 432 0 -394 418 465 0 293 297 -312 0 -309 531 -553 0 325 -464 -523 0 -297 321 451 0 -328 390 410 0 412 -443 -523 0 -323 -385 451 0 340 -385 -549 0 -345 -397 429 0 372 489 -537 0 -342 355 -497 0 -319 385 398 0 303 -332 -387 0 -300 380 392 0 -355 402 411 0 342 457 -552 0 324 -436 -475 0 495 501 533 0 300 -453 0 -356 -452 465 0 445 -513 539 0 352 -426 -478 0 -347 -481 555 0 -315 366 -461 0 281 -327 0 -309 402 515 0 342 344 453 0 417 -434 526 0 449 -454 549 0 -305 365 559 0 379 -496 542 0 285 -377 469 0 359 -387 -504 0 283 291 293 0 370 444 -461 0 330 416 525 0 -323 -392 482 0 331 410 556 0 421 447 526 0 398 427 534 0 -315 347 -442 0 -352 397 -454 0 328 -396 -443 0 436 -524 -528 0 322 369 -559 0 305 -378 -496 0 -356 377 -530 0 297 402 443 0 344 -436 535 0 342 -369 -443 0 -412 445 503 0 -353 431 -496 0 287 521 -554 0 325 -367 400 0 -301 -375 515 0 -373 374 -448 0 364 -378 423 0 305 -417 475 0 -365 -425 464 0 471 488 -542 0 -398 415 522 0 -321 -328 458 0 -324 385 -471 0 -299 -384 526 0 -348 368 511 0 314 -477 499 0 404 428 -438 0 364 -404 533 0 316 -390 -402 0 337 400 447 0 -281 415 485 0 416 511 -528 0 -294 -350 420 0 -433 -499 511 0 -429 -509 546 0 341 -435 -497 0 401 -419 -531 0 316 -470 -558 0 325 -395 505 0 312 -349 -379 0 336 -521 -557 0 -466 -502 550 0 -281 392 435 0 -316 -447 517 0 300 354 -415 0 -363 -393 513 0 286 354 533 0 334 344 -536 0 -402 428 553 0 -307 367 483 0 -370 402 -498 0 -381 -385 393 0 376 406 -486 0 342 439 481 0 289 -453 -488 0 -296 309 -415 0 308 -314 531 0 407 408 -554 0 463 519 541 0 -364 443 0 -390 -392 530 0 301 -484 -539 0 431 441 -544 0 -383 476 478 0 379 447 476 0 347 384 495 0 445 -493 524 0 290 317 515 0 314 -445 528 0 285 328 -444 0 365 419 -470 0 291 -384 -462 0 371 382 416 0 -355 363 -382 0 -342 353 -414 0 -289 -397 544 0 -364 384 -417 0 -434 -515 519 0 327 341 461 0 333 -388 -429 0 -405 416 453 0 414 -483 -492 0 320 462 505 0 -364 437 518 0 348 -353 430 0 345 -352 -508 0 375 423 -463 0 307 -503 529 0 292 -404 -518 0 -361 363 -423 0 -298 307 -372 0 -399 449 532 0 351 468 473 0 346 414 -535 0 305 -434 482 0 -306 367 421 0 -288 -362 463 0 -290 450 470 0 406 421 464 0 352 -373 437 0 -330 498 513 0 413 463 -526 0 343 -416 488 0 296 -443 551 0 436 -446 472 0 291 538 -539 0 396 -443 520 0 -383 538 553 0 403 -471 531 0 -293 420 516 0 299 408 489 0 -330 381 -516 0 -282 -385 396 0 342 431 441 0 -351 512 536 0 -334 422 -500 0 306 455 463 0 295 339 -485 0 -429 -477 536 0 328 -459 534 0 338 -424 -495 0 315 400 521 0 329 370 -470 0 289 -346 -485 0 428 -496 -555 0 329 365 488 0 297 -311 513 0 -371 -378 545 0 292 -461 -462 0 376 -415 -449 0 468 472 -480 0 -433 444 475 0 -428 528 -545 0 -298 -327 388 0 -396 -433 514 0 413 -531 541 0 302 331 -338 0 -420 -548 -557 0 -281 394 -423 0 325 454 546 0 -319 398 473 0 329 403 -413 0 313 -390 -418 0 -328 -427 475 0 -308 -473 519 0 363 -367 -399 0 326 351 -386 0 -386 418 -475 0 360 417 475 0 316 -445 548 0 -296 505 -543 0 -337 370 -539 0 326 409 -484 0 318 -364 -386 0 304 -339 -464 0 -301 319 408 0 283 487 492 0 406 428 -533 0 400 -415 444 0 328 450 491 0 -347 439 536 0 294 306 -372 0 -385 437 512 0 -398 -444 478 0 429 -433 0 368 -402 -544 0 303 -499 503 0 -299 306 485 0 -285 -289 430 0 -353 -500 534 0 -289 -400 472 0 -400 -435 449 0 311 -346 -467 0 379 -478 548 0 -353 379 520 0 -284 383 -407 0 373 411 -549 0 -369 454 479 0 406 423 469 0 292 400 401 0 -293 -359 552 0 -343 -436 514 0 -299 -341 347 0 -321 381 -390 0 -332 428 524 0 -313 523 -535 0 -450 453 498 0 296 -304 -317 0 355 -436 524 0 361 387 473 0 296 336 -414 0 -426 447 -500 0 366 -483 532 0 -453 496 -542 0 -339 362 519 0 -341 397 508 0 -330 428 -499 0 295 -367 -539 0 -348 -426 480 0 306 344 -511 0 314 365 -521 0 -471 -482 552 0 366 -458 465 0 -349 353 536 0 425 542 -548 0 289 456 -482 0 343 417 -419 0 286 355 365 0 -335 -362 413 0 430 -455 -537 0 -343 -484 554 0 291 489 529 0 345 -540 0 -338 -342 383 0 320 337 448 0 -341 513 -520 0 -459 -473 552 0 327 368 -409 0 338 -365 -388 0 -347 372 -496 0 374 -486 -521 0 -373 432 539 0 -352 -384 393 0 -344 450 -526 0 338 469 -473 0 348 -434 507 0 430 -519 -524 0 -436 466 468 0 366 421 515 0 335 471 496 0 286 -453 471 0 361 392 497 0 -289 -461 508 0 -316 325 -529 0 309 -554 557 0 428 -482 -556 0 -313 426 556 0 407 540 544 0 -343 388 419 0 360 452 461 0 -362 407 -550 0 350 -363 -385 0 -340 491 -554 0 311 -444 -529 0 -316 354 -491 0 411 -479 519 0 -427 449 -549 0 -310 384 519 0 353 429 547 0 390 520 -553 0 439 504 -550 0 288 -407 -501 0 376 434 474 0 -367 515 517 0 333 -391 -490 0 283 409 -499 0 473 521 522 0 -351 -374 -555 0 295 -491 502 0 441 453 -559 0 315 408 479 0 465 489 510 0 -353 -502 528 0 -425 -430 548 0 308 -385 514 0 292 -302 -466 0 312 -314 391 0 464 -465 500 0 362 -425 -555 0 297 -442 475 0 -299 324 373 0 324 -355 -411 0 330 -345 -485 0 -408 -510 553 0 383 454 -523 0 -288 331 -410 0 -347 -358 493 0 392 476 -477 0 346 359 447 0 364 -374 406 0 386 446 -482 0 -304 -310 388 0 -318 339 341 0 294 315 -452 0 281 -365 -410 0 363 537 -541 0 -289 -410 428 0 281 351 404 0 296 433 -457 0 -291 -387 414 0 -444 450 512 0 -384 446 -465 0 -297 -380 466 0 -305 370 -372 0 -378 484 -556 0 -399 457 -525 0 -398 541 554 0 331 -335 -341 0 339 461 -556 0 -336 451 470 0 -300 -439 463 0 408 412 479 0 296 -313 -445 0 406 -479 -508 0 -388 -408 476 0 316 448 -536 0 -296 431 -497 0 297 426 547 0 305 527 559 0 361 399 487 0 302 -345 -411 0 -375 451 -517 0 313 346 495 0 344 477 -539 0 -311 342 -378 0 -315 334 -554 0 -371 514 -542 0 -400 423 456 0 356 -411 -487 0 284 -345 559 0 444 548 -550 0 -512 528 551 0 -486 -493 528 0 315 325 382 0 429 -490 518 0 306 385 543 0 370 -443 -446 0 -472 509 541 0 -322 365 -382 0 341 -398 520 0 -427 443 -527 0 507 -554 -557 0 -294 440 -481 0 -318 351 425 0 371 417 -424 0 -284 -469 476 0 -339 -467 549 0 401 -511 0 294 -355 361 0 -335 414 531 0 311 399 469 0 -313 410 -456 0 296 -302 435 0 371 469 -485 0 -384 -553 554 0 -436 537 543 0 383 409 497 0 332 -429 -543 0 -294 -432 512 0 -327 376 -538 0 325 386 -452 0 369 532 -543 0 -287 422 -471 0 325 -373 492 0 428 472 -502 0 287 503 -549 0 -370 475 -546 0 375 401 496 0 -282 297 -344 0 -285 292 -403 0 -316 353 425 0 337 368 -427 0 373 488 0 454 489 -517 0 -328 378 383 0 -522 523 559 0 351 410 -454 0 -314 -345 378 0 342 -429 -457 0 -387 412 -531 0 334 336 -390 0 338 495 -551 0 337 -370 -407 0 345 393 455 0 320 465 490 0 314 399 -498 0 -322 409 -469 0 -359 -361 556 0 -341 478 557 0 289 -350 -522 0 -379 434 440 0 -371 -420 505 0 311 -390 -493 0 -344 391 479 0 -314 -441 465 0 358 423 519 0 308 -373 -438 0 308 491 520 0 358 -433 476 0 380 469 -510 0 285 -379 -426 0 -291 317 -359 0 -427 534 548 0 365 528 530 0 -372 500 527 0 392 496 505 0 -313 -330 388 0 -318 433 -493 0 363 419 -497 0 -316 430 551 0 -300 -341 394 0 -299 -352 404 0 -396 443 -493 0 293 426 466 0 311 416 527 0 308 349 -544 0 289 -319 388 0 -330 532 -545 0 506 -510 527 0 321 -439 462 0 -293 444 557 0 -319 349 403 0 -313 -496 503 0 -291 409 -412 0 317 -355 545 0 283 319 529 0 -473 507 526 0 -288 -297 524 0 383 -449 -548 0 319 377 -516 0 345 448 555 0 -390 -398 524 0 -348 520 551 0 -368 434 526 0 -320 451 -473 0 315 360 431 0 -321 -440 516 0 441 -473 513 0 352 396 462 0 301 448 512 0 409 -450 -523 0 -326 344 -524 0 429 -522 -534 0 -313 427 522 0 400 477 549 0 396 -415 456 0 358 395 -475 0 -348 485 501 0 344 -541 551 0 322 427 -556 0 364 480 -553 0 -313 356 504 0 -307 -347 -425 0 -327 -509 554 0 337 393 481 0 286 -434 -454 0 376 -414 -451 0 -338 -414 421 0 298 317 -521 0 414 433 -467 0 425 457 501 0 321 -348 408 0 319 350 -361 0 474 -533 540 0 399 487 548 0 430 -453 -514 0 281 -434 -537 0 359 419 -493 0 -282 514 -559 0 335 -440 -559 0 307 401 413 0 -381 393 -558 0 320 437 539 0 312 386 488 0 -319 337 -405 0 329 -471 -530 0 -383 384 -417 0 379 -476 483 0 -312 -384 423 0 392 -445 527 0 -281 -361 445 0 310 326 515 0 289 359 542 0 307 371 547 0 -355 -440 470 0 303 -400 559 0 -286 -481 520 0 -306 322 -548 0 -370 -474 541 0 -393 -502 554 0 400 -468 497 0 319 359 -474 0 -442 510 558 0 -358 419 -427 0 -353 425 520 0 -284 436 -483 0 533 -548 -553 0 -341 -405 425 0 350 -482 -517 0 -293 377 489 0 283 -472 -550 0 461 503 530 0 431 480 -481 0 428 -512 -531 0 356 393 505 0 366 493 -496 0 358 469 -536 0 -314 357 -547 0 403 -522 524 0 299 -311 495 0 -374 516 524 0 -291 306 -365 0 -350 501 -557 0 -383 -406 524 0 287 -308 -557 0 -312 417 -517 0 -344 393 -488 0 312 -430 -544 0 -288 464 -465 0 297 475 479 0 -347 424 502 0 -320 325 420 0 338 431 547 0 -496 -519 -527 0 367 368 419 0 402 467 -485 0 328 339 553 0 287 319 329 0 328 457 -522 0 387 518 523 0 -293 316 -546 0 -286 -420 451 0 -318 360 446 0 412 -449 -528 0 -383 520 -533 0 309 -445 546 0 404 421 -499 0 -302 -438 531 0 285 481 -548 0 -293 322 -533 0 290 491 519 0 -378 410 479 0 441 468 -544 0 -297 -455 474 0 -302 344 -528 0 324 -422 543 0 -405 451 -478 0 -390 -446 480 0 284 -428 -536 0 284 296 377 0 287 -325 -508 0 328 377 -441 0 372 -400 420 0 -317 -492 512 0 318 -482 -539 0 426 474 532 0 -430 523 555 0 403 -408 -448 0 323 330 348 0 -347 490 544 0 368 445 459 0 333 400 -452 0 -367 -448 491 0 -337 496 502 0 298 -318 -359 0 -320 351 -555 0 -310 465 531 0 -307 -391 520 0 -380 467 541 0 -284 352 508 0 342 442 537 0 -309 513 -529 0 -345 403 458 0 290 -438 512 0 304 389 -551 0 -411 -470 543 0 329 -336 -338 0 287 369 -466 0 388 -440 506 0 363 454 531 0 -470 473 -519 0 -324 402 -413 0 314 -484 -528 0 350 -421 436 0 -346 383 -425 0 491 -530 532 0 379 404 -469 0 282 401 507 0 -384 459 -481 0 366 -442 492 0 340 -373 -404 0 393 503 527 0 324 466 472 0 -373 376 543 0 324 394 -538 0 -448 -474 490 0 -298 441 476 0 -308 321 338 0 339 -417 462 0 -296 474 -476 0 432 444 539 0 -344 427 559 0 338 350 -398 0 -298 458 -532 0 487 -494 -515 0 348 -378 527 0 -285 289 -552 0 333 519 -540 0 -350 -499 -548 0 395 403 -447 0 291 302 -343 0 -305 308 -379 0 431 491 550 0 376 460 471 0 383 -432 442 0 -293 351 446 0 355 463 -516 0 -302 -381 508 0 289 -442 -495 0 351 378 -420 0 294 301 466 0 -361 -486 501 0 367 -450 -467 0 291 298 -451 0 359 -554 558 0 356 457 505 0 -324 447 -487 0 308 -336 521 0 -364 -377 506 0 -358 462 -477 0 352 373 384 0 397 419 555 0 375 547 -550 0 288 -308 540 0 458 -509 -525 0 -301 -496 550 0 355 -359 -432 0 -372 383 -500 0 -297 -494 510 0 -294 331 -510 0 -310 341 -538 0 356 -490 516 0 -375 -409 -533 0 -362 402 -530 0 330 -345 546 0 337 -405 -469 0 293 441 466 0 466 -492 -533 0 299 -383 410 0 -392 -427 493 0 366 -374 384 0 382 -485 -525 0 379 -401 527 0 -508 521 529 0 345 380 422 0 -383 -421 542 0 466 -501 542 0 367 419 -514 0 304 -316 390 0 -297 -300 452 0 379 -452 -492 0 320 -336 -454 0 -327 362 -502 0 285 -390 475 0 -281 494 505 0 -286 -454 511 0 306 -311 -484 0 386 429 457 0 290 -352 537 0 -306 -315 479 0 -383 452 -520 0 336 -502 -529 0 332 421 528 0 317 -518 522 0 345 439 -472 0 395 -444 533 0 300 385 -495 0 470 540 -542 0 -300 480 522 0 -374 532 544 0 -483 487 502 0 360 441 472 0 -328 -388 558 0 376 410 -413 0 339 349 -470 0 -380 488 548 0 356 425 550 0 285 368 454 0 -467 -475 517 0 425 469 -529 0 417 -423 -425 0 -297 321 453 0 390 -425 531 0 303 -428 541 0 357 489 -532 0 -332 -342 553 0 410 469 -474 0 -342 530 -536 0 -324 355 -513 0 -336 -382 400 0 291 -415 -454 0 304 476 -546 0 -343 389 547 0 -285 -336 540 0 -349 423 522 0 281 -377 -496 0 303 506 -514 0 354 -396 490 0 328 -479 -546 0 283 -316 460 0 344 -417 -524 0 301 -325 -505 0 373 379 473 0 303 487 508 0 382 454 -502 0 439 -494 -548 0 312 378 -404 0 -382 -415 535 0 353 424 -517 0 327 349 -446 0 -397 461 -536 0 -292 419 -537 0 340 -537 540 0 300 -324 461 0 -328 475 549 0 -387 -505 519 0 383 -399 -488 0 334 425 482 0 290 453 517 0 343 -399 460 0 342 -372 -448 0 387 409 532 0 -396 -426 491 0 -310 337 359 0 303 -316 -363 0 -284 439 -453 0 492 -501 -531 0 365 -453 -527 0 -341 399 -403 0 324 -381 -545 0 373 411 448 0 -376 470 515 0 336 -382 -537 0 366 379 538 0 -361 368 -423 0 322 331 372 0 -381 -450 508 0 -309 319 -357 0 -308 494 -521 0 -329 -395 510 0 -420 -429 523 0 -303 420 481 0 -333 405 424 0 310 -407 550 0 -297 -542 556 0 -355 -457 476 0 -315 325 -550 0 -441 448 451 0 -525 -527 531 0 418 -518 548 0 -334 483 -497 0 -315 430 -491 0 335 371 470 0 -337 390 521 0 379 468 -555 0 351 -390 434 0 340 490 523 0 -473 506 -518 0 375 -439 -489 0 334 379 -391 0 305 -384 -552 0 -329 413 -478 0 290 -455 484 0 397 -436 -547 0 -324 406 548 0 295 -414 -463 0 -399 -414 554 0 -484 -516 518 0 -399 444 497 0 -291 -466 520 0 328 359 430 0 -437 504 -556 0 284 -404 -558 0 -425 -445 464 0 477 -485 554 0 -411 470 -511 0 299 518 -548 0 420 426 -445 0 289 406 -475 0 -296 -314 348 0 440 -481 -544 0 -350 -366 448 0 326 -420 -534 0 330 392 -537 0 307 -376 -390 0 283 425 430 0 321 426 468 0 -296 314 461 0 -308 369 411 0 328 404 449 0 356 398 -555 0 -355 373 464 0 -424 -440 514 0 390 434 -463 0 437 449 -554 0 -521 -533 -559 0 287 -394 -425 0 -341 411 -548 0 357 394 551 0 -454 458 480 0 415 422 491 0 310 -312 360 0 322 429 -444 0 284 371 -532 0 331 -386 -493 0 -332 -420 421 0 -315 356 387 0 -302 425 475 0 -380 504 512 0 -394 523 -528 0 332 -344 -539 0 344 367 403 0 294 -469 540 0 310 340 -437 0 400 -404 -420 0 302 -434 -508 0 306 -407 -449 0 -302 -334 443 0 -306 -462 513 0 330 -416 -456 0 331 349 470 0 317 -351 -534 0 298 -349 452 0 -338 487 518 0 -335 358 458 0 -319 350 -485 0 286 -365 395 0 498 -540 557 0 287 325 328 0 -405 -437 -529 0 -329 391 506 0 303 -413 -443 0 -325 -425 548 0 594 637 -776 0 -578 639 701 0 576 -657 -754 0 599 614 633 0 609 -672 -693 0 -693 740 -752 0 -626 640 -772 0 598 670 773 0 584 641 -747 0 -562 563 791 0 635 646 736 0 -573 -696 700 0 608 728 -753 0 -650 667 -736 0 626 688 -713 0 -605 669 756 0 571 -703 750 0 -635 647 689 0 -598 -648 -677 0 -617 793 -795 0 -675 -697 -779 0 -561 587 613 0 630 -729 756 0 626 -705 -761 0 -618 644 705 0 -583 635 -659 0 -603 672 716 0 568 715 -718 0 595 694 -729 0 -645 -646 684 0 647 694 -757 0 727 737 -756 0 629 -642 650 0 -567 607 780 0 574 581 -661 0 586 -685 -746 0 -622 724 752 0 -605 625 717 0 606 650 -723 0 640 723 750 0 615 -675 -740 0 612 -703 780 0 610 -640 -655 0 591 -643 -691 0 -728 751 -789 0 -643 660 -777 0 -609 743 -769 0 706 -755 -798 0 -584 -721 748 0 641 -687 689 0 -568 -692 701 0 -631 642 -778 0 -570 603 770 0 -584 787 797 0 596 754 776 0 565 -587 -762 0 -596 626 753 0 -617 726 -787 0 -613 -615 725 0 562 -731 781 0 662 -717 -777 0 -596 654 -742 0 -564 -641 740 0 653 657 791 0 607 -693 773 0 676 678 730 0 677 -688 0 -580 -659 714 0 618 637 -760 0 606 -729 761 0 -598 609 -698 0 595 -722 -765 0 612 -683 787 0 688 -745 -758 0 644 721 -770 0 -641 717 786 0 -582 755 -769 0 -564 673 -780 0 590 787 788 0 -649 -714 796 0 -566 617 726 0 596 632 773 0 -602 685 752 0 664 771 -790 0 724 759 761 0 575 721 -729 0 -613 628 794 0 -562 -597 -625 0 690 -722 -765 0 -670 -692 783 0 -566 -577 724 0 712 739 -755 0 661 702 -732 0 604 -721 797 0 562 -634 706 0 -675 690 775 0 674 684 788 0 -566 -632 636 0 599 666 681 0 -626 -658 788 0 599 600 602 0 -691 718 745 0 709 -719 789 0 610 -774 0 622 -710 784 0 -602 637 -654 0 -607 -629 727 0
